NAME: pr107
COMMENT: Local search tour for pr107 (45208.70621779239)
TYPE: TOUR
DIMENSION: 107
TOUR_SECTION: 1 4 3 6 7 9 10 8 11 12 13 16 15 18 14 17 20 23 24 21 19 22 25 28 27 30 26 29 32 35 36 33 31 34 37 40 39 42 38 41 44 47 48 43 45 46 49 52 51 54 53 50 55 104 106 107 105 103 100 102 101 56 99 57 96 94 97 98 95 93 90 92 91 58 89 59 86 84 87 88 85 83 80 82 81 60 79 61 76 74 77 78 75 72 69 71 73 62 70 67 68 65 64 66 63 5 2 -1
EOF